c This is a random SAT instance with 10 variables and 20 clauses
p cnf 10 20
-5 9 -1 -10 -8 4 1 0
-9 -5 2 -7 6 -6 -10 -8 0
-1 4 2 -10 6 -4 3 9 -5 -9 0
-2 8 6 -10 -9 9 -6 5 0
-2 8 5 7 -7 0
-2 0
7 -10 10 5 1 -8 3 9 0
2 0
5 -9 3 -7 9 0
-1 -6 -4 1 -8 0
7 2 8 10 0
9 -5 2 8 5 0
-10 0
8 10 2 -6 -9 4 9 -2 5 -5 0
-1 6 8 -10 1 0
7 6 -5 0
-10 -6 5 10 -9 7 4 0
7 -1 5 -3 3 4 2 -8 8 0
2 3 -7 -9 6 10 -4 -3 4 0
3 -8 -3 -6 0